p cnf 1344
-24 -416
-25 -419
-26 -422
-27 -425
-28 -428
-29 -431
-30 -434
-31 -437
-32 -440
-33 -443
-34 -446
-35 -449
-36 -452
-37 -455
-38 -458
-39 -461
-40 -464
-41 -467
-42 -470
-43 -473
-44 -476
-45 -479
-46 -482
-47 483
-48 484
-49 485
-50 486
-51 487
-52 488
-53 -25
-53 -26
25 26 53
-54 -27
-54 -28
27 28 54
-55 -29
-55 -30
29 30 55
-56 -31
-56 -32
31 32 56
-57 -33
-57 -34
33 34 57
-58 -35
-58 -36
35 36 58
-59 -37
-59 -38
37 38 59
-60 -39
-60 -40
39 40 60
-61 -41
-61 -42
41 42 61
-62 -43
-62 -44
43 44 62
-63 -45
-63 -46
45 46 63
-64 -47
-64 -48
47 48 64
-65 -49
-65 -50
49 50 65
-66 -51
-66 -52
51 52 66
-67 53
-67 54
-53 -54 67
-68 55
-68 56
-55 -56 68
-69 57
-69 58
-57 -58 69
-70 59
-70 60
-59 -60 70
-71 61
-71 62
-61 -62 71
-72 63
-72 64
-63 -64 72
-73 65
-73 66
-65 -66 73
-74 67
-74 68
-67 -68 74
-75 69
-75 70
-69 -70 75
-76 71
-76 72
-71 -72 76
-77 74
-77 75
-74 -75 77
-78 73
-78 76
-73 -76 78
-79 77
-79 78
-77 -78 79
-80 -24
-80 25
24 -25 80
-81 24
-81 -25
-24 25 81
-82 -80
-82 -81
80 81 82
-83 24
-83 25
-24 -25 83
-84 -24
-84 -82
24 82 84
-85 24
-85 82
-24 -82 85
-86 -84
-86 -85
84 85 86
-87 24
-87 -82
-24 82 87
-88 -83
-88 -87
83 87 88
-89 -25
-89 26
25 -26 89
-90 25
-90 -26
-25 26 90
-91 -89
-91 -90
89 90 91
-92 25
-92 26
-25 -26 92
-93 88
-93 -91
-88 91 93
-94 -88
-94 91
88 -91 94
-95 -93
-95 -94
93 94 95
-96 -88
-96 -91
88 91 96
-97 -92
-97 -96
92 96 97
-98 -26
-98 27
26 -27 98
-99 26
-99 -27
-26 27 99
-100 -98
-100 -99
98 99 100
-101 26
-101 27
-26 -27 101
-102 97
-102 -100
-97 100 102
-103 -97
-103 100
97 -100 103
-104 -102
-104 -103
102 103 104
-105 -97
-105 -100
97 100 105
-106 -101
-106 -105
101 105 106
-107 -27
-107 28
27 -28 107
-108 27
-108 -28
-27 28 108
-109 -107
-109 -108
107 108 109
-110 27
-110 28
-27 -28 110
-111 106
-111 -109
-106 109 111
-112 -106
-112 109
106 -109 112
-113 -111
-113 -112
111 112 113
-114 -106
-114 -109
106 109 114
-115 -110
-115 -114
110 114 115
-116 -28
-116 29
28 -29 116
-117 28
-117 -29
-28 29 117
-118 -116
-118 -117
116 117 118
-119 28
-119 29
-28 -29 119
-120 115
-120 -118
-115 118 120
-121 -115
-121 118
115 -118 121
-122 -120
-122 -121
120 121 122
-123 -115
-123 -118
115 118 123
-124 -119
-124 -123
119 123 124
-125 -29
-125 30
29 -30 125
-126 29
-126 -30
-29 30 126
-127 -125
-127 -126
125 126 127
-128 29
-128 30
-29 -30 128
-129 124
-129 -127
-124 127 129
-130 -124
-130 127
124 -127 130
-131 -129
-131 -130
129 130 131
-132 -124
-132 -127
124 127 132
-133 -128
-133 -132
128 132 133
-134 -30
-134 31
30 -31 134
-135 30
-135 -31
-30 31 135
-136 -134
-136 -135
134 135 136
-137 30
-137 31
-30 -31 137
-138 133
-138 -136
-133 136 138
-139 -133
-139 136
133 -136 139
-140 -138
-140 -139
138 139 140
-141 -133
-141 -136
133 136 141
-142 -137
-142 -141
137 141 142
-143 -31
-143 32
31 -32 143
-144 31
-144 -32
-31 32 144
-145 -143
-145 -144
143 144 145
-146 31
-146 32
-31 -32 146
-147 142
-147 -145
-142 145 147
-148 -142
-148 145
142 -145 148
-149 -147
-149 -148
147 148 149
-150 -142
-150 -145
142 145 150
-151 -146
-151 -150
146 150 151
-152 -32
-152 33
32 -33 152
-153 32
-153 -33
-32 33 153
-154 -152
-154 -153
152 153 154
-155 32
-155 33
-32 -33 155
-156 151
-156 -154
-151 154 156
-157 -151
-157 154
151 -154 157
-158 -156
-158 -157
156 157 158
-159 -151
-159 -154
151 154 159
-160 -155
-160 -159
155 159 160
-161 -33
-161 34
33 -34 161
-162 33
-162 -34
-33 34 162
-163 -161
-163 -162
161 162 163
-164 33
-164 34
-33 -34 164
-165 160
-165 -163
-160 163 165
-166 -160
-166 163
160 -163 166
-167 -165
-167 -166
165 166 167
-168 -160
-168 -163
160 163 168
-169 -164
-169 -168
164 168 169
-170 -34
-170 35
34 -35 170
-171 34
-171 -35
-34 35 171
-172 -170
-172 -171
170 171 172
-173 34
-173 35
-34 -35 173
-174 169
-174 -172
-169 172 174
-175 -169
-175 172
169 -172 175
-176 -174
-176 -175
174 175 176
-177 -169
-177 -172
169 172 177
-178 -173
-178 -177
173 177 178
-179 -35
-179 36
35 -36 179
-180 35
-180 -36
-35 36 180
-181 -179
-181 -180
179 180 181
-182 35
-182 36
-35 -36 182
-183 178
-183 -181
-178 181 183
-184 -178
-184 181
178 -181 184
-185 -183
-185 -184
183 184 185
-186 -178
-186 -181
178 181 186
-187 -182
-187 -186
182 186 187
-188 -36
-188 37
36 -37 188
-189 36
-189 -37
-36 37 189
-190 -188
-190 -189
188 189 190
-191 36
-191 37
-36 -37 191
-192 187
-192 -190
-187 190 192
-193 -187
-193 190
187 -190 193
-194 -192
-194 -193
192 193 194
-195 -187
-195 -190
187 190 195
-196 -191
-196 -195
191 195 196
-197 -37
-197 38
37 -38 197
-198 37
-198 -38
-37 38 198
-199 -197
-199 -198
197 198 199
-200 37
-200 38
-37 -38 200
-201 196
-201 -199
-196 199 201
-202 -196
-202 199
196 -199 202
-203 -201
-203 -202
201 202 203
-204 -196
-204 -199
196 199 204
-205 -200
-205 -204
200 204 205
-206 -38
-206 39
38 -39 206
-207 38
-207 -39
-38 39 207
-208 -206
-208 -207
206 207 208
-209 38
-209 39
-38 -39 209
-210 205
-210 -208
-205 208 210
-211 -205
-211 208
205 -208 211
-212 -210
-212 -211
210 211 212
-213 -205
-213 -208
205 208 213
-214 -209
-214 -213
209 213 214
-215 -39
-215 40
39 -40 215
-216 39
-216 -40
-39 40 216
-217 -215
-217 -216
215 216 217
-218 39
-218 40
-39 -40 218
-219 214
-219 -217
-214 217 219
-220 -214
-220 217
214 -217 220
-221 -219
-221 -220
219 220 221
-222 -214
-222 -217
214 217 222
-223 -218
-223 -222
218 222 223
-224 -40
-224 41
40 -41 224
-225 40
-225 -41
-40 41 225
-226 -224
-226 -225
224 225 226
-227 40
-227 41
-40 -41 227
-228 223
-228 -226
-223 226 228
-229 -223
-229 226
223 -226 229
-230 -228
-230 -229
228 229 230
-231 -223
-231 -226
223 226 231
-232 -227
-232 -231
227 231 232
-233 -41
-233 42
41 -42 233
-234 41
-234 -42
-41 42 234
-235 -233
-235 -234
233 234 235
-236 41
-236 42
-41 -42 236
-237 232
-237 -235
-232 235 237
-238 -232
-238 235
232 -235 238
-239 -237
-239 -238
237 238 239
-240 -232
-240 -235
232 235 240
-241 -236
-241 -240
236 240 241
-242 -42
-242 43
42 -43 242
-243 42
-243 -43
-42 43 243
-244 -242
-244 -243
242 243 244
-245 42
-245 43
-42 -43 245
-246 241
-246 -244
-241 244 246
-247 -241
-247 244
241 -244 247
-248 -246
-248 -247
246 247 248
-249 -241
-249 -244
241 244 249
-250 -245
-250 -249
245 249 250
-251 -43
-251 44
43 -44 251
-252 43
-252 -44
-43 44 252
-253 -251
-253 -252
251 252 253
-254 43
-254 44
-43 -44 254
-255 250
-255 -253
-250 253 255
-256 -250
-256 253
250 -253 256
-257 -255
-257 -256
255 256 257
-258 -250
-258 -253
250 253 258
-259 -254
-259 -258
254 258 259
-260 -44
-260 45
44 -45 260
-261 44
-261 -45
-44 45 261
-262 -260
-262 -261
260 261 262
-263 44
-263 45
-44 -45 263
-264 259
-264 -262
-259 262 264
-265 -259
-265 262
259 -262 265
-266 -264
-266 -265
264 265 266
-267 -259
-267 -262
259 262 267
-268 -263
-268 -267
263 267 268
-269 -45
-269 46
45 -46 269
-270 45
-270 -46
-45 46 270
-271 -269
-271 -270
269 270 271
-272 45
-272 46
-45 -46 272
-273 268
-273 -271
-268 271 273
-274 -268
-274 271
268 -271 274
-275 -273
-275 -274
273 274 275
-276 -268
-276 -271
268 271 276
-277 -272
-277 -276
272 276 277
-278 -46
-278 47
46 -47 278
-279 46
-279 -47
-46 47 279
-280 -278
-280 -279
278 279 280
-281 46
-281 47
-46 -47 281
-282 277
-282 -280
-277 280 282
-283 -277
-283 280
277 -280 283
-284 -282
-284 -283
282 283 284
-285 -277
-285 -280
277 280 285
-286 -281
-286 -285
281 285 286
-287 -47
-287 48
47 -48 287
-288 47
-288 -48
-47 48 288
-289 -287
-289 -288
287 288 289
-290 47
-290 48
-47 -48 290
-291 286
-291 -289
-286 289 291
-292 -286
-292 289
286 -289 292
-293 -291
-293 -292
291 292 293
-294 -286
-294 -289
286 289 294
-295 -290
-295 -294
290 294 295
-296 -48
-296 49
48 -49 296
-297 48
-297 -49
-48 49 297
-298 -296
-298 -297
296 297 298
-299 48
-299 49
-48 -49 299
-300 295
-300 -298
-295 298 300
-301 -295
-301 298
295 -298 301
-302 -300
-302 -301
300 301 302
-303 -295
-303 -298
295 298 303
-304 -299
-304 -303
299 303 304
-305 -49
-305 50
49 -50 305
-306 49
-306 -50
-49 50 306
-307 -305
-307 -306
305 306 307
-308 49
-308 50
-49 -50 308
-309 304
-309 -307
-304 307 309
-310 -304
-310 307
304 -307 310
-311 -309
-311 -310
309 310 311
-312 -304
-312 -307
304 307 312
-313 -308
-313 -312
308 312 313
-314 -50
-314 51
50 -51 314
-315 50
-315 -51
-50 51 315
-316 -314
-316 -315
314 315 316
-317 50
-317 51
-50 -51 317
-318 313
-318 -316
-313 316 318
-319 -313
-319 316
313 -316 319
-320 -318
-320 -319
318 319 320
-321 -313
-321 -316
313 316 321
-322 -317
-322 -321
317 321 322
-323 -51
-323 52
51 -52 323
-324 51
-324 -52
-51 52 324
-325 -323
-325 -324
323 324 325
-326 51
-326 52
-51 -52 326
-327 322
-327 -325
-322 325 327
-328 -322
-328 325
322 -325 328
-329 -327
-329 -328
327 328 329
-330 -322
-330 -325
322 325 330
-331 -326
-331 -330
326 330 331
-332 24
-332 -86
-24 86 332
-333 -24
-333 26
24 -26 333
-334 -332
-334 -333
332 333 334
-335 24
-335 -95
-24 95 335
-336 -24
-336 27
24 -27 336
-337 -335
-337 -336
335 336 337
-338 24
-338 -104
-24 104 338
-339 -24
-339 28
24 -28 339
-340 -338
-340 -339
338 339 340
-341 24
-341 -113
-24 113 341
-342 -24
-342 29
24 -29 342
-343 -341
-343 -342
341 342 343
-344 24
-344 -122
-24 122 344
-345 -24
-345 30
24 -30 345
-346 -344
-346 -345
344 345 346
-347 24
-347 -131
-24 131 347
-348 -24
-348 31
24 -31 348
-349 -347
-349 -348
347 348 349
-350 24
-350 -140
-24 140 350
-351 -24
-351 32
24 -32 351
-352 -350
-352 -351
350 351 352
-353 24
-353 -149
-24 149 353
-354 -24
-354 33
24 -33 354
-355 -353
-355 -354
353 354 355
-356 24
-356 -158
-24 158 356
-357 -24
-357 34
24 -34 357
-358 -356
-358 -357
356 357 358
-359 24
-359 -167
-24 167 359
-360 -24
-360 35
24 -35 360
-361 -359
-361 -360
359 360 361
-362 24
-362 -176
-24 176 362
-363 -24
-363 36
24 -36 363
-364 -362
-364 -363
362 363 364
-365 24
-365 -185
-24 185 365
-366 -24
-366 37
24 -37 366
-367 -365
-367 -366
365 366 367
-368 24
-368 -194
-24 194 368
-369 -24
-369 38
24 -38 369
-370 -368
-370 -369
368 369 370
-371 24
-371 -203
-24 203 371
-372 -24
-372 39
24 -39 372
-373 -371
-373 -372
371 372 373
-374 24
-374 -212
-24 212 374
-375 -24
-375 40
24 -40 375
-376 -374
-376 -375
374 375 376
-377 24
-377 -221
-24 221 377
-378 -24
-378 41
24 -41 378
-379 -377
-379 -378
377 378 379
-380 24
-380 -230
-24 230 380
-381 -24
-381 42
24 -42 381
-382 -380
-382 -381
380 381 382
-383 24
-383 -239
-24 239 383
-384 -24
-384 43
24 -43 384
-385 -383
-385 -384
383 384 385
-386 24
-386 -248
-24 248 386
-387 -24
-387 44
24 -44 387
-388 -386
-388 -387
386 387 388
-389 24
-389 -257
-24 257 389
-390 -24
-390 45
24 -45 390
-391 -389
-391 -390
389 390 391
-392 24
-392 -266
-24 266 392
-393 -24
-393 46
24 -46 393
-394 -392
-394 -393
392 393 394
-395 24
-395 -275
-24 275 395
-396 -24
-396 47
24 -47 396
-397 -395
-397 -396
395 396 397
-398 24
-398 -284
-24 284 398
-399 -24
-399 48
24 -48 399
-400 -398
-400 -399
398 399 400
-401 24
-401 -293
-24 293 401
-402 -24
-402 49
24 -49 402
-403 -401
-403 -402
401 402 403
-404 24
-404 -302
-24 302 404
-405 -24
-405 50
24 -50 405
-406 -404
-406 -405
404 405 406
-407 24
-407 -311
-24 311 407
-408 -24
-408 51
24 -51 408
-409 -407
-409 -408
407 408 409
-410 24
-410 -320
-24 320 410
-411 -24
-411 52
24 -52 411
-412 -410
-412 -411
410 411 412
-413 24
-413 -329
-24 329 413
-414 1
-414 79
-1 -79 414
-415 -79
-415 80
79 -80 415
-416 -414
-416 -415
414 415 416
-417 2
-417 79
-2 -79 417
-418 -79
-418 -334
79 334 418
-419 -417
-419 -418
417 418 419
-420 3
-420 79
-3 -79 420
-421 -79
-421 -337
79 337 421
-422 -420
-422 -421
420 421 422
-423 4
-423 79
-4 -79 423
-424 -79
-424 -340
79 340 424
-425 -423
-425 -424
423 424 425
-426 5
-426 79
-5 -79 426
-427 -79
-427 -343
79 343 427
-428 -426
-428 -427
426 427 428
-429 6
-429 79
-6 -79 429
-430 -79
-430 -346
79 346 430
-431 -429
-431 -430
429 430 431
-432 7
-432 79
-7 -79 432
-433 -79
-433 -349
79 349 433
-434 -432
-434 -433
432 433 434
-435 8
-435 79
-8 -79 435
-436 -79
-436 -352
79 352 436
-437 -435
-437 -436
435 436 437
-438 9
-438 79
-9 -79 438
-439 -79
-439 -355
79 355 439
-440 -438
-440 -439
438 439 440
-441 10
-441 79
-10 -79 441
-442 -79
-442 -358
79 358 442
-443 -441
-443 -442
441 442 443
-444 11
-444 79
-11 -79 444
-445 -79
-445 -361
79 361 445
-446 -444
-446 -445
444 445 446
-447 12
-447 79
-12 -79 447
-448 -79
-448 -364
79 364 448
-449 -447
-449 -448
447 448 449
-450 13
-450 79
-13 -79 450
-451 -79
-451 -367
79 367 451
-452 -450
-452 -451
450 451 452
-453 14
-453 79
-14 -79 453
-454 -79
-454 -370
79 370 454
-455 -453
-455 -454
453 454 455
-456 15
-456 79
-15 -79 456
-457 -79
-457 -373
79 373 457
-458 -456
-458 -457
456 457 458
-459 16
-459 79
-16 -79 459
-460 -79
-460 -376
79 376 460
-461 -459
-461 -460
459 460 461
-462 17
-462 79
-17 -79 462
-463 -79
-463 -379
79 379 463
-464 -462
-464 -463
462 463 464
-465 18
-465 79
-18 -79 465
-466 -79
-466 -382
79 382 466
-467 -465
-467 -466
465 466 467
-468 19
-468 79
-19 -79 468
-469 -79
-469 -385
79 385 469
-470 -468
-470 -469
468 469 470
-471 20
-471 79
-20 -79 471
-472 -79
-472 -388
79 388 472
-473 -471
-473 -472
471 472 473
-474 21
-474 79
-21 -79 474
-475 -79
-475 -391
79 391 475
-476 -474
-476 -475
474 475 476
-477 22
-477 79
-22 -79 477
-478 -79
-478 -394
79 394 478
-479 -477
-479 -478
477 478 479
-480 23
-480 79
-23 -79 480
-481 -79
-481 -397
79 397 481
-482 -480
-482 -481
480 481 482
-483 -79
-483 -400
79 400 483
-484 -79
-484 -403
79 403 484
-485 -79
-485 -406
79 406 485
-486 -79
-486 -409
79 409 486
-487 -79
-487 -412
79 412 487
-488 -79
-488 413
79 -413 488
-489 -52
-489 331
52 -331 489
-490 24
-490 -489
-24 489 490
490
